%nprocshared=4
%mem=4GB
%chk=C:\Users\jared\Desktop\spectras\4_5-IMINE-PYRENE\no_solvent\no_solvent_4_5-IMINE-PYRENE.chk
# freq=raman b3lyp/6-311++g(d,p) geom=connectivity

Title Card Required

0 1
 C                 -3.53510605   -0.47339713   -0.00000001
 C                 -2.82973263   -1.66171821   -0.00000044
 C                 -1.42025757   -1.66352599   -0.00000034
 C                 -0.72205014   -0.42371062    0.00000018
 C                 -1.46078986    0.78558758    0.00000069
 C                 -2.85153057    0.74667323    0.00000051
 C                 -0.67859469   -2.89133636   -0.00000069
 C                  0.72205014   -0.42371062    0.00000028
 C                  1.42025757   -1.66352599   -0.00000001
 C                  0.67859470   -2.89133636   -0.00000050
 C                  2.82973263   -1.66171821    0.00000018
 H                  3.35457346   -2.61132089   -0.00000012
 C                  3.53510605   -0.47339713    0.00000058
 C                  2.85153057    0.74667323    0.00000070
 C                  1.46078986    0.78558758    0.00000061
 C                  0.76504823    2.09592962    0.00000062
 C                 -0.76504823    2.09592962    0.00000149
 H                 -1.22917414   -3.82596200   -0.00000112
 H                 -4.61902153   -0.48260007   -0.00000012
 H                 -3.35457346   -2.61132089   -0.00000096
 H                 -3.39224020    1.68401808    0.00000091
 H                  1.22917414   -3.82596200   -0.00000078
 H                  4.61902153   -0.48260007    0.00000069
 H                  3.39224020    1.68401808    0.00000095
 N                  1.46775767    3.16291005   -0.00000271
 H                  0.89403896    4.00848169   -0.00000400
 N                 -1.46775767    3.16291005    0.00000016
 H                 -0.89403896    4.00848169   -0.00000061

 1 2 1.5 6 1.5 19 1.0
 2 3 1.5 20 1.0
 3 4 1.5 7 1.5
 4 5 1.5 8 1.5
 5 6 1.5 17 1.0
 6 21 1.0
 7 10 2.0 18 1.0
 8 9 1.5 15 1.5
 9 10 1.5 11 1.5
 10 22 1.0
 11 12 1.0 13 1.5
 12
 13 14 1.5 23 1.0
 14 15 1.5 24 1.0
 15 16 1.0
 16 17 1.0 25 2.0
 17 27 2.0
 18
 19
 20
 21
 22
 23
 24
 25 26 1.0
 26
 27 28 1.0
 28

