%chk=C:\Users\jared\Desktop\spectras\4-ONE_5-IMINE-PYRENE.chk
# freq=raman b3lyp/6-311++g(d,p) geom=connectivity

Title Card Required

0 1
 C                  3.53067800   -0.50651800   -0.00001200
 C                  2.80438800   -1.68367900   -0.00001000
 C                  1.39320100   -1.67404200    0.00000300
 C                  0.70925300   -0.42801100    0.00001600
 C                  1.47254100    0.76876000    0.00002500
 C                  2.86252100    0.72180700    0.00000500
 C                  0.63778400   -2.89380700    0.00000100
 C                 -0.73567400   -0.40763500    0.00001500
 C                 -1.44740100   -1.63856000    0.00000800
 C                 -0.71981700   -2.87533200    0.00000500
 C                 -2.85779300   -1.61830200    0.00000000
 H                 -3.39533800   -2.56061900   -0.00000400
 C                 -3.54774000   -0.42103300   -0.00000800
 C                 -2.84974600    0.79243000   -0.00000800
 C                 -1.46035800    0.81188100    0.00000500
 H                  1.17623000   -3.83535000   -0.00000700
 H                  4.61399000   -0.53441800   -0.00002300
 H                  3.31805300   -2.63949000   -0.00002200
 H                  3.40967600    1.65659500    0.00001100
 H                 -1.28184900   -3.80308000    0.00000000
 H                 -4.63165900   -0.41764500   -0.00001600
 H                 -3.37798000    1.73750700   -0.00001500
 N                 -1.35471500    3.21559000   -0.00001700
 H                 -0.66514700    3.97525200    0.00000000
 O                  1.39973500    3.14077700   -0.00006000
 C                  0.79639800    2.08219800    0.00006600
 C                 -0.73504600    2.10082700    0.00000200

 1 2 2.0 6 1.5 17 1.0
 2 3 1.5 18 1.0
 3 4 1.5 7 1.5
 4 5 1.5 8 1.5
 5 6 1.5 26 1.0
 6 19 1.0
 7 10 2.0 16 1.0
 8 9 1.5 15 1.5
 9 10 1.5 11 1.5
 10 20 1.0
 11 12 1.0 13 2.0
 12
 13 14 1.5 21 1.0
 14 15 1.5 22 1.0
 15 27 1.0
 16
 17
 18
 19
 20
 21
 22
 23 24 1.0 27 2.0
 24
 25 26 2.0
 26 27 1.0
 27

